305849
305849
305849
305849
305849
305849
305849
305849
301849
301849
301849
301849
300811
300229
295040
295040
295040
294851
294851
291909
291327
288317
288317
288215
286446
285752
284210
283417
279875
279681
279681
278409
278409
278376
277833
275166
275166
275065
271816
271816
269430
269430
269430
269024
269024
268914
268914
268152
266459
266459
266292
266292
264262
264262
264262
264262
264176
262921
260963
260963
260963
260963
260028
259710
259710
258949
258601
258091
258091
258091
258091
257448
256818
256818
254449
254449
254449
254449
254449
254449
254295
254295
254295
252271
252271
252271
252271
252254
252254
252254
252254
250008
250008
249705
249705
249577
249577
249577
249577
249577
